p cnf 741 2198
1 2 51 0
-1 2 -51 0
1 -2 -51 0
-1 -2 51 0
-4 -6 52 0
4 -6 -52 0
-4 6 -52 0
4 6 52 0
-9 10 53 0
9 10 -53 0
-9 -10 -53 0
9 -10 53 0
-11 13 54 0
11 13 -54 0
-11 -13 -54 0
11 -13 54 0
-16 17 55 0
16 17 -55 0
-16 -17 -55 0
16 -17 55 0
-18 -19 56 0
18 -19 -56 0
-18 19 -56 0
18 19 56 0
-23 -24 57 0
23 -24 -57 0
-23 24 -57 0
23 24 57 0
-25 26 58 0
25 26 -58 0
-25 -26 -58 0
25 -26 58 0
-27 32 59 0
27 32 -59 0
-27 -32 -59 0
27 -32 59 0
33 34 60 0
-33 34 -60 0
33 -34 -60 0
-33 -34 60 0
37 39 61 0
-37 39 -61 0
37 -39 -61 0
-37 -39 61 0
-43 -44 62 0
43 -44 -62 0
-43 44 -62 0
43 44 62 0
-45 48 63 0
45 48 -63 0
-45 -48 -63 0
45 -48 63 0
49 -50 64 0
-49 -50 -64 0
49 50 -64 0
-49 50 64 0
51 -52 65 0
-51 -52 -65 0
51 52 -65 0
-51 52 65 0
53 -54 66 0
-53 -54 -66 0
53 54 -66 0
-53 54 66 0
55 -56 67 0
-55 -56 -67 0
55 56 -67 0
-55 56 67 0
57 -58 68 0
-57 -58 -68 0
57 58 -68 0
-57 58 68 0
59 -60 69 0
-59 -60 -69 0
59 60 -69 0
-59 60 69 0
61 -62 70 0
-61 -62 -70 0
61 62 -70 0
-61 62 70 0
63 -64 71 0
-63 -64 -71 0
63 64 -71 0
-63 64 71 0
65 -66 72 0
-65 -66 -72 0
65 66 -72 0
-65 66 72 0
67 -68 73 0
-67 -68 -73 0
67 68 -73 0
-67 68 73 0
69 -70 74 0
-69 -70 -74 0
69 70 -74 0
-69 70 74 0
71 -72 75 0
-71 -72 -75 0
71 72 -75 0
-71 72 75 0
73 -74 76 0
-73 -74 -76 0
73 74 -76 0
-73 74 76 0
75 76 0
-75 -76 0
-3 4 77 0
3 4 -77 0
-3 -4 -77 0
3 -4 77 0
-5 7 78 0
5 7 -78 0
-5 -7 -78 0
5 -7 78 0
-9 10 79 0
9 10 -79 0
-9 -10 -79 0
9 -10 79 0
-11 -13 80 0
11 -13 -80 0
-11 13 -80 0
11 13 80 0
-14 -18 81 0
14 -18 -81 0
-14 18 -81 0
14 18 81 0
22 -25 82 0
-22 -25 -82 0
22 25 -82 0
-22 25 82 0
26 29 83 0
-26 29 -83 0
26 -29 -83 0
-26 -29 83 0
30 -32 84 0
-30 -32 -84 0
30 32 -84 0
-30 32 84 0
33 -34 85 0
-33 -34 -85 0
33 34 -85 0
-33 34 85 0
-39 -40 86 0
39 -40 -86 0
-39 40 -86 0
39 40 86 0
42 -44 87 0
-42 -44 -87 0
42 44 -87 0
-42 44 87 0
-45 -46 88 0
45 -46 -88 0
-45 46 -88 0
45 46 88 0
76 -77 89 0
-76 -77 -89 0
76 77 -89 0
-76 77 89 0
78 -79 90 0
-78 -79 -90 0
78 79 -90 0
-78 79 90 0
80 -81 91 0
-80 -81 -91 0
80 81 -91 0
-80 81 91 0
82 -83 92 0
-82 -83 -92 0
82 83 -92 0
-82 83 92 0
84 -85 93 0
-84 -85 -93 0
84 85 -93 0
-84 85 93 0
86 -87 94 0
-86 -87 -94 0
86 87 -94 0
-86 87 94 0
88 -89 95 0
-88 -89 -95 0
88 89 -95 0
-88 89 95 0
90 -91 96 0
-90 -91 -96 0
90 91 -96 0
-90 91 96 0
92 -93 97 0
-92 -93 -97 0
92 93 -97 0
-92 93 97 0
94 -95 98 0
-94 -95 -98 0
94 95 -98 0
-94 95 98 0
96 -97 99 0
-96 -97 -99 0
96 97 -99 0
-96 97 99 0
98 99 0
-98 -99 0
-3 -7 100 0
3 -7 -100 0
-3 7 -100 0
3 7 100 0
11 12 101 0
-11 12 -101 0
11 -12 -101 0
-11 -12 101 0
13 -14 102 0
-13 -14 -102 0
13 14 -102 0
-13 14 102 0
15 -16 103 0
-15 -16 -103 0
15 16 -103 0
-15 16 103 0
-18 19 104 0
18 19 -104 0
-18 -19 -104 0
18 -19 104 0
-20 -23 105 0
20 -23 -105 0
-20 23 -105 0
20 23 105 0
-24 -26 106 0
24 -26 -106 0
-24 26 -106 0
24 26 106 0
27 28 107 0
-27 28 -107 0
27 -28 -107 0
-27 -28 107 0
-31 32 108 0
31 32 -108 0
-31 -32 -108 0
31 -32 108 0
-34 35 109 0
34 35 -109 0
-34 -35 -109 0
34 -35 109 0
-37 -38 110 0
37 -38 -110 0
-37 38 -110 0
37 38 110 0
39 -40 111 0
-39 -40 -111 0
39 40 -111 0
-39 40 111 0
-41 -46 112 0
41 -46 -112 0
-41 46 -112 0
41 46 112 0
-49 50 113 0
49 50 -113 0
-49 -50 -113 0
49 -50 113 0
100 -101 114 0
-100 -101 -114 0
100 101 -114 0
-100 101 114 0
102 -103 115 0
-102 -103 -115 0
102 103 -115 0
-102 103 115 0
104 -105 116 0
-104 -105 -116 0
104 105 -116 0
-104 105 116 0
106 -107 117 0
-106 -107 -117 0
106 107 -117 0
-106 107 117 0
108 -109 118 0
-108 -109 -118 0
108 109 -118 0
-108 109 118 0
110 -111 119 0
-110 -111 -119 0
110 111 -119 0
-110 111 119 0
112 -113 120 0
-112 -113 -120 0
112 113 -120 0
-112 113 120 0
114 -115 121 0
-114 -115 -121 0
114 115 -121 0
-114 115 121 0
116 -117 122 0
-116 -117 -122 0
116 117 -122 0
-116 117 122 0
118 -119 123 0
-118 -119 -123 0
118 119 -123 0
-118 119 123 0
120 -121 124 0
-120 -121 -124 0
120 121 -124 0
-120 121 124 0
122 -123 125 0
-122 -123 -125 0
122 123 -125 0
-122 123 125 0
124 125 0
-124 -125 0
-5 7 126 0
5 7 -126 0
-5 -7 -126 0
5 -7 126 0
8 9 127 0
-8 9 -127 0
8 -9 -127 0
-8 -9 127 0
10 -11 128 0
-10 -11 -128 0
10 11 -128 0
-10 11 128 0
12 -13 129 0
-12 -13 -129 0
12 13 -129 0
-12 13 129 0
14 16 130 0
-14 16 -130 0
14 -16 -130 0
-14 -16 130 0
18 -20 131 0
-18 -20 -131 0
18 20 -131 0
-18 20 131 0
23 25 132 0
-23 25 -132 0
23 -25 -132 0
-23 -25 132 0
26 -27 133 0
-26 -27 -133 0
26 27 -133 0
-26 27 133 0
-29 30 134 0
29 30 -134 0
-29 -30 -134 0
29 -30 134 0
-31 -34 135 0
31 -34 -135 0
-31 34 -135 0
31 34 135 0
35 36 136 0
-35 36 -136 0
35 -36 -136 0
-35 -36 136 0
37 38 137 0
-37 38 -137 0
37 -38 -137 0
-37 -38 137 0
41 -44 138 0
-41 -44 -138 0
41 44 -138 0
-41 44 138 0
-45 46 139 0
45 46 -139 0
-45 -46 -139 0
45 -46 139 0
125 -126 140 0
-125 -126 -140 0
125 126 -140 0
-125 126 140 0
127 -128 141 0
-127 -128 -141 0
127 128 -141 0
-127 128 141 0
129 -130 142 0
-129 -130 -142 0
129 130 -142 0
-129 130 142 0
131 -132 143 0
-131 -132 -143 0
131 132 -143 0
-131 132 143 0
133 -134 144 0
-133 -134 -144 0
133 134 -144 0
-133 134 144 0
135 -136 145 0
-135 -136 -145 0
135 136 -145 0
-135 136 145 0
137 -138 146 0
-137 -138 -146 0
137 138 -146 0
-137 138 146 0
139 -140 147 0
-139 -140 -147 0
139 140 -147 0
-139 140 147 0
141 -142 148 0
-141 -142 -148 0
141 142 -148 0
-141 142 148 0
143 -144 149 0
-143 -144 -149 0
143 144 -149 0
-143 144 149 0
145 -146 150 0
-145 -146 -150 0
145 146 -150 0
-145 146 150 0
147 -148 151 0
-147 -148 -151 0
147 148 -151 0
-147 148 151 0
149 -150 152 0
-149 -150 -152 0
149 150 -152 0
-149 150 152 0
151 152 0
-151 -152 0
1 2 153 0
-1 2 -153 0
1 -2 -153 0
-1 -2 153 0
-5 6 154 0
5 6 -154 0
-5 -6 -154 0
5 -6 154 0
7 10 155 0
-7 10 -155 0
7 -10 -155 0
-7 -10 155 0
-11 12 156 0
11 12 -156 0
-11 -12 -156 0
11 -12 156 0
13 14 157 0
-13 14 -157 0
13 -14 -157 0
-13 -14 157 0
-15 -16 158 0
15 -16 -158 0
-15 16 -158 0
15 16 158 0
17 -18 159 0
-17 -18 -159 0
17 18 -159 0
-17 18 159 0
-21 22 160 0
21 22 -160 0
-21 -22 -160 0
21 -22 160 0
24 26 161 0
-24 26 -161 0
24 -26 -161 0
-24 -26 161 0
-27 28 162 0
27 28 -162 0
-27 -28 -162 0
27 -28 162 0
-30 33 163 0
30 33 -163 0
-30 -33 -163 0
30 -33 163 0
-35 -38 164 0
35 -38 -164 0
-35 38 -164 0
35 38 164 0
-42 -43 165 0
42 -43 -165 0
-42 43 -165 0
42 43 165 0
-44 -47 166 0
44 -47 -166 0
-44 47 -166 0
44 47 166 0
-48 50 167 0
48 50 -167 0
-48 -50 -167 0
48 -50 167 0
153 -154 168 0
-153 -154 -168 0
153 154 -168 0
-153 154 168 0
155 -156 169 0
-155 -156 -169 0
155 156 -169 0
-155 156 169 0
157 -158 170 0
-157 -158 -170 0
157 158 -170 0
-157 158 170 0
159 -160 171 0
-159 -160 -171 0
159 160 -171 0
-159 160 171 0
161 -162 172 0
-161 -162 -172 0
161 162 -172 0
-161 162 172 0
163 -164 173 0
-163 -164 -173 0
163 164 -173 0
-163 164 173 0
165 -166 174 0
-165 -166 -174 0
165 166 -174 0
-165 166 174 0
167 -168 175 0
-167 -168 -175 0
167 168 -175 0
-167 168 175 0
169 -170 176 0
-169 -170 -176 0
169 170 -176 0
-169 170 176 0
171 -172 177 0
-171 -172 -177 0
171 172 -177 0
-171 172 177 0
173 -174 178 0
-173 -174 -178 0
173 174 -178 0
-173 174 178 0
175 -176 179 0
-175 -176 -179 0
175 176 -179 0
-175 176 179 0
177 -178 180 0
-177 -178 -180 0
177 178 -180 0
-177 178 180 0
179 180 0
-179 -180 0
-7 10 181 0
7 10 -181 0
-7 -10 -181 0
7 -10 181 0
11 -15 182 0
-11 -15 -182 0
11 15 -182 0
-11 15 182 0
18 -19 183 0
-18 -19 -183 0
18 19 -183 0
-18 19 183 0
21 -22 184 0
-21 -22 -184 0
21 22 -184 0
-21 22 184 0
-26 -32 185 0
26 -32 -185 0
-26 32 -185 0
26 32 185 0
-35 -37 186 0
35 -37 -186 0
-35 37 -186 0
35 37 186 0
-39 40 187 0
39 40 -187 0
-39 -40 -187 0
39 -40 187 0
-41 42 188 0
41 42 -188 0
-41 -42 -188 0
41 -42 188 0
-44 -46 189 0
44 -46 -189 0
-44 46 -189 0
44 46 189 0
180 -181 190 0
-180 -181 -190 0
180 181 -190 0
-180 181 190 0
182 -183 191 0
-182 -183 -191 0
182 183 -191 0
-182 183 191 0
184 -185 192 0
-184 -185 -192 0
184 185 -192 0
-184 185 192 0
186 -187 193 0
-186 -187 -193 0
186 187 -193 0
-186 187 193 0
188 -189 194 0
-188 -189 -194 0
188 189 -194 0
-188 189 194 0
190 -191 195 0
-190 -191 -195 0
190 191 -195 0
-190 191 195 0
192 -193 196 0
-192 -193 -196 0
192 193 -196 0
-192 193 196 0
-194 -195 196 0
194 -195 -196 0
-194 195 -196 0
194 195 196 0
-3 5 197 0
3 5 -197 0
-3 -5 -197 0
3 -5 197 0
-6 -7 198 0
6 -7 -198 0
-6 7 -198 0
6 7 198 0
8 9 199 0
-8 9 -199 0
8 -9 -199 0
-8 -9 199 0
11 13 200 0
-11 13 -200 0
11 -13 -200 0
-11 -13 200 0
14 -15 201 0
-14 -15 -201 0
14 15 -201 0
-14 15 201 0
17 19 202 0
-17 19 -202 0
17 -19 -202 0
-17 -19 202 0
-20 -26 203 0
20 -26 -203 0
-20 26 -203 0
20 26 203 0
-30 -31 204 0
30 -31 -204 0
-30 31 -204 0
30 31 204 0
34 -36 205 0
-34 -36 -205 0
34 36 -205 0
-34 36 205 0
37 39 206 0
-37 39 -206 0
37 -39 -206 0
-37 -39 206 0
40 42 207 0
-40 42 -207 0
40 -42 -207 0
-40 -42 207 0
-44 -45 208 0
44 -45 -208 0
-44 45 -208 0
44 45 208 0
47 48 209 0
-47 48 -209 0
47 -48 -209 0
-47 -48 209 0
196 -197 210 0
-196 -197 -210 0
196 197 -210 0
-196 197 210 0
198 -199 211 0
-198 -199 -211 0
198 199 -211 0
-198 199 211 0
200 -201 212 0
-200 -201 -212 0
200 201 -212 0
-200 201 212 0
202 -203 213 0
-202 -203 -213 0
202 203 -213 0
-202 203 213 0
204 -205 214 0
-204 -205 -214 0
204 205 -214 0
-204 205 214 0
206 -207 215 0
-206 -207 -215 0
206 207 -215 0
-206 207 215 0
208 -209 216 0
-208 -209 -216 0
208 209 -216 0
-208 209 216 0
210 -211 217 0
-210 -211 -217 0
210 211 -217 0
-210 211 217 0
212 -213 218 0
-212 -213 -218 0
212 213 -218 0
-212 213 218 0
214 -215 219 0
-214 -215 -219 0
214 215 -219 0
-214 215 219 0
216 -217 220 0
-216 -217 -220 0
216 217 -220 0
-216 217 220 0
218 -219 221 0
-218 -219 -221 0
218 219 -221 0
-218 219 221 0
220 221 0
-220 -221 0
1 -7 222 0
-1 -7 -222 0
1 7 -222 0
-1 7 222 0
10 12 223 0
-10 12 -223 0
10 -12 -223 0
-10 -12 223 0
-14 -15 224 0
14 -15 -224 0
-14 15 -224 0
14 15 224 0
-16 -21 225 0
16 -21 -225 0
-16 21 -225 0
16 21 225 0
22 -25 226 0
-22 -25 -226 0
22 25 -226 0
-22 25 226 0
-27 -29 227 0
27 -29 -227 0
-27 29 -227 0
27 29 227 0
30 -31 228 0
-30 -31 -228 0
30 31 -228 0
-30 31 228 0
32 36 229 0
-32 36 -229 0
32 -36 -229 0
-32 -36 229 0
38 39 230 0
-38 39 -230 0
38 -39 -230 0
-38 -39 230 0
40 41 231 0
-40 41 -231 0
40 -41 -231 0
-40 -41 231 0
43 44 232 0
-43 44 -232 0
43 -44 -232 0
-43 -44 232 0
45 -47 233 0
-45 -47 -233 0
45 47 -233 0
-45 47 233 0
221 -222 234 0
-221 -222 -234 0
221 222 -234 0
-221 222 234 0
223 -224 235 0
-223 -224 -235 0
223 224 -235 0
-223 224 235 0
225 -226 236 0
-225 -226 -236 0
225 226 -236 0
-225 226 236 0
227 -228 237 0
-227 -228 -237 0
227 228 -237 0
-227 228 237 0
229 -230 238 0
-229 -230 -238 0
229 230 -238 0
-229 230 238 0
231 -232 239 0
-231 -232 -239 0
231 232 -239 0
-231 232 239 0
233 -234 240 0
-233 -234 -240 0
233 234 -240 0
-233 234 240 0
235 -236 241 0
-235 -236 -241 0
235 236 -241 0
-235 236 241 0
237 -238 242 0
-237 -238 -242 0
237 238 -242 0
-237 238 242 0
239 -240 243 0
-239 -240 -243 0
239 240 -243 0
-239 240 243 0
241 -242 244 0
-241 -242 -244 0
241 242 -244 0
-241 242 244 0
243 244 0
-243 -244 0
-1 -4 245 0
1 -4 -245 0
-1 4 -245 0
1 4 245 0
6 -8 246 0
-6 -8 -246 0
6 8 -246 0
-6 8 246 0
-10 -12 247 0
10 -12 -247 0
-10 12 -247 0
10 12 247 0
14 15 248 0
-14 15 -248 0
14 -15 -248 0
-14 -15 248 0
-16 21 249 0
16 21 -249 0
-16 -21 -249 0
16 -21 249 0
-22 25 250 0
22 25 -250 0
-22 -25 -250 0
22 -25 250 0
28 -29 251 0
-28 -29 -251 0
28 29 -251 0
-28 29 251 0
31 36 252 0
-31 36 -252 0
31 -36 -252 0
-31 -36 252 0
37 38 253 0
-37 38 -253 0
37 -38 -253 0
-37 -38 253 0
-39 40 254 0
39 40 -254 0
-39 -40 -254 0
39 -40 254 0
46 -48 255 0
-46 -48 -255 0
46 48 -255 0
-46 48 255 0
244 -245 256 0
-244 -245 -256 0
244 245 -256 0
-244 245 256 0
246 -247 257 0
-246 -247 -257 0
246 247 -257 0
-246 247 257 0
248 -249 258 0
-248 -249 -258 0
248 249 -258 0
-248 249 258 0
250 -251 259 0
-250 -251 -259 0
250 251 -259 0
-250 251 259 0
252 -253 260 0
-252 -253 -260 0
252 253 -260 0
-252 253 260 0
254 -255 261 0
-254 -255 -261 0
254 255 -261 0
-254 255 261 0
256 -257 262 0
-256 -257 -262 0
256 257 -262 0
-256 257 262 0
258 -259 263 0
-258 -259 -263 0
258 259 -263 0
-258 259 263 0
260 -261 264 0
-260 -261 -264 0
260 261 -264 0
-260 261 264 0
-262 -263 264 0
262 -263 -264 0
-262 263 -264 0
262 263 264 0
3 -5 265 0
-3 -5 -265 0
3 5 -265 0
-3 5 265 0
-6 -8 266 0
6 -8 -266 0
-6 8 -266 0
6 8 266 0
-10 -11 267 0
10 -11 -267 0
-10 11 -267 0
10 11 267 0
-13 -14 268 0
13 -14 -268 0
-13 14 -268 0
13 14 268 0
16 23 269 0
-16 23 -269 0
16 -23 -269 0
-16 -23 269 0
26 -27 270 0
-26 -27 -270 0
26 27 -270 0
-26 27 270 0
28 32 271 0
-28 32 -271 0
28 -32 -271 0
-28 -32 271 0
34 -35 272 0
-34 -35 -272 0
34 35 -272 0
-34 35 272 0
-37 -38 273 0
37 -38 -273 0
-37 38 -273 0
37 38 273 0
41 46 274 0
-41 46 -274 0
41 -46 -274 0
-41 -46 274 0
-48 49 275 0
48 49 -275 0
-48 -49 -275 0
48 -49 275 0
265 -266 276 0
-265 -266 -276 0
265 266 -276 0
-265 266 276 0
267 -268 277 0
-267 -268 -277 0
267 268 -277 0
-267 268 277 0
269 -270 278 0
-269 -270 -278 0
269 270 -278 0
-269 270 278 0
271 -272 279 0
-271 -272 -279 0
271 272 -279 0
-271 272 279 0
273 -274 280 0
-273 -274 -280 0
273 274 -280 0
-273 274 280 0
275 -276 281 0
-275 -276 -281 0
275 276 -281 0
-275 276 281 0
277 -278 282 0
-277 -278 -282 0
277 278 -282 0
-277 278 282 0
279 -280 283 0
-279 -280 -283 0
279 280 -283 0
-279 280 283 0
-281 -282 283 0
281 -282 -283 0
-281 282 -283 0
281 282 283 0
-1 -4 284 0
1 -4 -284 0
-1 4 -284 0
1 4 284 0
-5 6 285 0
5 6 -285 0
-5 -6 -285 0
5 -6 285 0
8 -10 286 0
-8 -10 -286 0
8 10 -286 0
-8 10 286 0
11 -12 287 0
-11 -12 -287 0
11 12 -287 0
-11 12 287 0
-14 -15 288 0
14 -15 -288 0
-14 15 -288 0
14 15 288 0
16 -17 289 0
-16 -17 -289 0
16 17 -289 0
-16 17 289 0
-20 -22 290 0
20 -22 -290 0
-20 22 -290 0
20 22 290 0
-23 24 291 0
23 24 -291 0
-23 -24 -291 0
23 -24 291 0
-25 -27 292 0
25 -27 -292 0
-25 27 -292 0
25 27 292 0
-28 29 293 0
28 29 -293 0
-28 -29 -293 0
28 -29 293 0
30 32 294 0
-30 32 -294 0
30 -32 -294 0
-30 -32 294 0
-33 -35 295 0
33 -35 -295 0
-33 35 -295 0
33 35 295 0
37 38 296 0
-37 38 -296 0
37 -38 -296 0
-37 -38 296 0
-39 42 297 0
39 42 -297 0
-39 -42 -297 0
39 -42 297 0
-46 -47 298 0
46 -47 -298 0
-46 47 -298 0
46 47 298 0
-49 50 299 0
49 50 -299 0
-49 -50 -299 0
49 -50 299 0
284 -285 300 0
-284 -285 -300 0
284 285 -300 0
-284 285 300 0
286 -287 301 0
-286 -287 -301 0
286 287 -301 0
-286 287 301 0
288 -289 302 0
-288 -289 -302 0
288 289 -302 0
-288 289 302 0
290 -291 303 0
-290 -291 -303 0
290 291 -303 0
-290 291 303 0
292 -293 304 0
-292 -293 -304 0
292 293 -304 0
-292 293 304 0
294 -295 305 0
-294 -295 -305 0
294 295 -305 0
-294 295 305 0
296 -297 306 0
-296 -297 -306 0
296 297 -306 0
-296 297 306 0
298 -299 307 0
-298 -299 -307 0
298 299 -307 0
-298 299 307 0
300 -301 308 0
-300 -301 -308 0
300 301 -308 0
-300 301 308 0
302 -303 309 0
-302 -303 -309 0
302 303 -309 0
-302 303 309 0
304 -305 310 0
-304 -305 -310 0
304 305 -310 0
-304 305 310 0
306 -307 311 0
-306 -307 -311 0
306 307 -311 0
-306 307 311 0
308 -309 312 0
-308 -309 -312 0
308 309 -312 0
-308 309 312 0
310 -311 313 0
-310 -311 -313 0
310 311 -313 0
-310 311 313 0
312 313 0
-312 -313 0
-2 4 314 0
2 4 -314 0
-2 -4 -314 0
2 -4 314 0
-5 7 315 0
5 7 -315 0
-5 -7 -315 0
5 -7 315 0
-8 10 316 0
8 10 -316 0
-8 -10 -316 0
8 -10 316 0
12 -13 317 0
-12 -13 -317 0
12 13 -317 0
-12 13 317 0
-14 -17 318 0
14 -17 -318 0
-14 17 -318 0
14 17 318 0
19 -20 319 0
-19 -20 -319 0
19 20 -319 0
-19 20 319 0
22 -23 320 0
-22 -23 -320 0
22 23 -320 0
-22 23 320 0
-24 26 321 0
24 26 -321 0
-24 -26 -321 0
24 -26 321 0
-27 -29 322 0
27 -29 -322 0
-27 29 -322 0
27 29 322 0
30 -32 323 0
-30 -32 -323 0
30 32 -323 0
-30 32 323 0
-34 35 324 0
34 35 -324 0
-34 -35 -324 0
34 -35 324 0
37 38 325 0
-37 38 -325 0
37 -38 -325 0
-37 -38 325 0
-42 43 326 0
42 43 -326 0
-42 -43 -326 0
42 -43 326 0
-45 46 327 0
45 46 -327 0
-45 -46 -327 0
45 -46 327 0
313 -314 328 0
-313 -314 -328 0
313 314 -328 0
-313 314 328 0
315 -316 329 0
-315 -316 -329 0
315 316 -329 0
-315 316 329 0
317 -318 330 0
-317 -318 -330 0
317 318 -330 0
-317 318 330 0
319 -320 331 0
-319 -320 -331 0
319 320 -331 0
-319 320 331 0
321 -322 332 0
-321 -322 -332 0
321 322 -332 0
-321 322 332 0
323 -324 333 0
-323 -324 -333 0
323 324 -333 0
-323 324 333 0
325 -326 334 0
-325 -326 -334 0
325 326 -334 0
-325 326 334 0
327 -328 335 0
-327 -328 -335 0
327 328 -335 0
-327 328 335 0
329 -330 336 0
-329 -330 -336 0
329 330 -336 0
-329 330 336 0
331 -332 337 0
-331 -332 -337 0
331 332 -337 0
-331 332 337 0
333 -334 338 0
-333 -334 -338 0
333 334 -338 0
-333 334 338 0
335 -336 339 0
-335 -336 -339 0
335 336 -339 0
-335 336 339 0
337 -338 340 0
-337 -338 -340 0
337 338 -340 0
-337 338 340 0
339 340 0
-339 -340 0
-1 3 341 0
1 3 -341 0
-1 -3 -341 0
1 -3 341 0
6 -9 342 0
-6 -9 -342 0
6 9 -342 0
-6 9 342 0
-15 -18 343 0
15 -18 -343 0
-15 18 -343 0
15 18 343 0
19 21 344 0
-19 21 -344 0
19 -21 -344 0
-19 -21 344 0
-22 24 345 0
22 24 -345 0
-22 -24 -345 0
22 -24 345 0
-26 27 346 0
26 27 -346 0
-26 -27 -346 0
26 -27 346 0
-31 -33 347 0
31 -33 -347 0
-31 33 -347 0
31 33 347 0
-34 35 348 0
34 35 -348 0
-34 -35 -348 0
34 -35 348 0
36 38 349 0
-36 38 -349 0
36 -38 -349 0
-36 -38 349 0
-40 -42 350 0
40 -42 -350 0
-40 42 -350 0
40 42 350 0
44 45 351 0
-44 45 -351 0
44 -45 -351 0
-44 -45 351 0
49 -50 352 0
-49 -50 -352 0
49 50 -352 0
-49 50 352 0
341 -342 353 0
-341 -342 -353 0
341 342 -353 0
-341 342 353 0
343 -344 354 0
-343 -344 -354 0
343 344 -354 0
-343 344 354 0
345 -346 355 0
-345 -346 -355 0
345 346 -355 0
-345 346 355 0
347 -348 356 0
-347 -348 -356 0
347 348 -356 0
-347 348 356 0
349 -350 357 0
-349 -350 -357 0
349 350 -357 0
-349 350 357 0
351 -352 358 0
-351 -352 -358 0
351 352 -358 0
-351 352 358 0
353 -354 359 0
-353 -354 -359 0
353 354 -359 0
-353 354 359 0
355 -356 360 0
-355 -356 -360 0
355 356 -360 0
-355 356 360 0
357 -358 361 0
-357 -358 -361 0
357 358 -361 0
-357 358 361 0
-359 -360 361 0
359 -360 -361 0
-359 360 -361 0
359 360 361 0
-1 -3 362 0
1 -3 -362 0
-1 3 -362 0
1 3 362 0
-4 -6 363 0
4 -6 -363 0
-4 6 -363 0
4 6 363 0
-8 11 364 0
8 11 -364 0
-8 -11 -364 0
8 -11 364 0
12 13 365 0
-12 13 -365 0
12 -13 -365 0
-12 -13 365 0
-15 19 366 0
15 19 -366 0
-15 -19 -366 0
15 -19 366 0
20 21 367 0
-20 21 -367 0
20 -21 -367 0
-20 -21 367 0
22 24 368 0
-22 24 -368 0
22 -24 -368 0
-22 -24 368 0
27 -32 369 0
-27 -32 -369 0
27 32 -369 0
-27 32 369 0
-33 -35 370 0
33 -35 -370 0
-33 35 -370 0
33 35 370 0
-37 -41 371 0
37 -41 -371 0
-37 41 -371 0
37 41 371 0
-43 45 372 0
43 45 -372 0
-43 -45 -372 0
43 -45 372 0
-48 -50 373 0
48 -50 -373 0
-48 50 -373 0
48 50 373 0
362 -363 374 0
-362 -363 -374 0
362 363 -374 0
-362 363 374 0
364 -365 375 0
-364 -365 -375 0
364 365 -375 0
-364 365 375 0
366 -367 376 0
-366 -367 -376 0
366 367 -376 0
-366 367 376 0
368 -369 377 0
-368 -369 -377 0
368 369 -377 0
-368 369 377 0
370 -371 378 0
-370 -371 -378 0
370 371 -378 0
-370 371 378 0
372 -373 379 0
-372 -373 -379 0
372 373 -379 0
-372 373 379 0
374 -375 380 0
-374 -375 -380 0
374 375 -380 0
-374 375 380 0
376 -377 381 0
-376 -377 -381 0
376 377 -381 0
-376 377 381 0
378 -379 382 0
-378 -379 -382 0
378 379 -382 0
-378 379 382 0
-380 -381 382 0
380 -381 -382 0
-380 381 -382 0
380 381 382 0
-2 3 383 0
2 3 -383 0
-2 -3 -383 0
2 -3 383 0
-4 5 384 0
4 5 -384 0
-4 -5 -384 0
4 -5 384 0
6 -8 385 0
-6 -8 -385 0
6 8 -385 0
-6 8 385 0
-13 -14 386 0
13 -14 -386 0
-13 14 -386 0
13 14 386 0
15 18 387 0
-15 18 -387 0
15 -18 -387 0
-15 -18 387 0
21 -22 388 0
-21 -22 -388 0
21 22 -388 0
-21 22 388 0
24 -25 389 0
-24 -25 -389 0
24 25 -389 0
-24 25 389 0
-28 33 390 0
28 33 -390 0
-28 -33 -390 0
28 -33 390 0
-34 -37 391 0
34 -37 -391 0
-34 37 -391 0
34 37 391 0
40 -44 392 0
-40 -44 -392 0
40 44 -392 0
-40 44 392 0
382 -383 393 0
-382 -383 -393 0
382 383 -393 0
-382 383 393 0
384 -385 394 0
-384 -385 -394 0
384 385 -394 0
-384 385 394 0
386 -387 395 0
-386 -387 -395 0
386 387 -395 0
-386 387 395 0
388 -389 396 0
-388 -389 -396 0
388 389 -396 0
-388 389 396 0
390 -391 397 0
-390 -391 -397 0
390 391 -397 0
-390 391 397 0
392 -393 398 0
-392 -393 -398 0
392 393 -398 0
-392 393 398 0
394 -395 399 0
-394 -395 -399 0
394 395 -399 0
-394 395 399 0
396 -397 400 0
-396 -397 -400 0
396 397 -400 0
-396 397 400 0
-398 -399 400 0
398 -399 -400 0
-398 399 -400 0
398 399 400 0
-12 401 0
-24 401 0
-12 -24 402 0
-23 401 0
-12 -23 402 0
-24 -23 402 0
-12 -24 -23 403 0
-22 404 0
-21 404 0
-22 -21 405 0
-20 404 0
-22 -20 405 0
-21 -20 405 0
-22 -21 -20 406 0
-401 407 0
-402 408 0
-403 409 0
-404 407 0
-405 408 0
-406 409 0
-401 -404 408 0
-401 -405 409 0
-401 -406 410 0
-402 -404 409 0
-402 -405 410 0
-402 -406 411 0
-403 -404 410 0
-403 -405 411 0
-403 -406 412 0
-19 413 0
-18 413 0
-19 -18 414 0
-17 413 0
-19 -17 414 0
-18 -17 414 0
-19 -18 -17 415 0
-16 416 0
-15 416 0
-16 -15 417 0
-14 416 0
-16 -14 417 0
-15 -14 417 0
-16 -15 -14 418 0
-413 419 0
-414 420 0
-415 421 0
-416 419 0
-417 420 0
-418 421 0
-413 -416 420 0
-413 -417 421 0
-413 -418 422 0
-414 -416 421 0
-414 -417 422 0
-414 -418 423 0
-415 -416 422 0
-415 -417 423 0
-415 -418 424 0
-407 425 0
-409 426 0
-411 427 0
-419 425 0
-421 426 0
-423 427 0
-407 -419 426 0
-407 -421 427 0
-407 -423 428 0
-409 -419 427 0
-409 -421 428 0
-409 -423 429 0
-411 -419 428 0
-411 -421 429 0
-411 -423 430 0
-408 431 0
-410 432 0
-412 433 0
-420 431 0
-422 432 0
-424 433 0
-408 -420 432 0
-408 -422 433 0
-408 -424 434 0
-410 -420 433 0
-410 -422 434 0
-410 -424 435 0
-412 -420 434 0
-412 -422 435 0
-412 -424 436 0
-426 437 0
-431 437 0
-426 -431 438 0
-427 439 0
-432 439 0
-427 -432 440 0
-428 441 0
-433 441 0
-428 -433 442 0
-429 443 0
-434 443 0
-429 -434 444 0
-430 445 0
-435 445 0
-430 -435 446 0
-13 447 0
-25 447 0
-13 -25 448 0
-11 447 0
-13 -11 448 0
-25 -11 448 0
-13 -25 -11 449 0
-10 450 0
-9 450 0
-10 -9 451 0
-8 450 0
-10 -8 451 0
-9 -8 451 0
-10 -9 -8 452 0
-447 453 0
-448 454 0
-449 455 0
-450 453 0
-451 454 0
-452 455 0
-447 -450 454 0
-447 -451 455 0
-447 -452 456 0
-448 -450 455 0
-448 -451 456 0
-448 -452 457 0
-449 -450 456 0
-449 -451 457 0
-449 -452 458 0
-7 459 0
-6 459 0
-7 -6 460 0
-5 459 0
-7 -5 460 0
-6 -5 460 0
-7 -6 -5 461 0
-4 462 0
-3 462 0
-4 -3 463 0
-2 462 0
-4 -2 463 0
-3 -2 463 0
-4 -3 -2 464 0
-459 465 0
-460 466 0
-461 467 0
-462 465 0
-463 466 0
-464 467 0
-459 -462 466 0
-459 -463 467 0
-459 -464 468 0
-460 -462 467 0
-460 -463 468 0
-460 -464 469 0
-461 -462 468 0
-461 -463 469 0
-461 -464 470 0
-453 471 0
-455 472 0
-457 473 0
-465 471 0
-467 472 0
-469 473 0
-453 -465 472 0
-453 -467 473 0
-453 -469 474 0
-455 -465 473 0
-455 -467 474 0
-455 -469 475 0
-457 -465 474 0
-457 -467 475 0
-457 -469 476 0
-454 477 0
-456 478 0
-458 479 0
-466 477 0
-468 478 0
-470 479 0
-454 -466 478 0
-454 -468 479 0
-454 -470 480 0
-456 -466 479 0
-456 -468 480 0
-456 -470 481 0
-458 -466 480 0
-458 -468 481 0
-458 -470 482 0
-472 483 0
-477 483 0
-472 -477 484 0
-473 485 0
-478 485 0
-473 -478 486 0
-474 487 0
-479 487 0
-474 -479 488 0
-475 489 0
-480 489 0
-475 -480 490 0
-476 491 0
-481 491 0
-476 -481 492 0
-1 493 0
-37 493 0
-1 -37 494 0
-49 493 0
-1 -49 494 0
-37 -49 494 0
-1 -37 -49 495 0
-48 496 0
-47 496 0
-48 -47 497 0
-46 496 0
-48 -46 497 0
-47 -46 497 0
-48 -47 -46 498 0
-493 499 0
-494 500 0
-495 501 0
-496 499 0
-497 500 0
-498 501 0
-493 -496 500 0
-493 -497 501 0
-493 -498 502 0
-494 -496 501 0
-494 -497 502 0
-494 -498 503 0
-495 -496 502 0
-495 -497 503 0
-495 -498 504 0
-45 505 0
-44 505 0
-45 -44 506 0
-43 505 0
-45 -43 506 0
-44 -43 506 0
-45 -44 -43 507 0
-42 508 0
-41 508 0
-42 -41 509 0
-40 508 0
-42 -40 509 0
-41 -40 509 0
-42 -41 -40 510 0
-505 511 0
-506 512 0
-507 513 0
-508 511 0
-509 512 0
-510 513 0
-505 -508 512 0
-505 -509 513 0
-505 -510 514 0
-506 -508 513 0
-506 -509 514 0
-506 -510 515 0
-507 -508 514 0
-507 -509 515 0
-507 -510 516 0
-499 517 0
-501 518 0
-503 519 0
-511 517 0
-513 518 0
-515 519 0
-499 -511 518 0
-499 -513 519 0
-499 -515 520 0
-501 -511 519 0
-501 -513 520 0
-501 -515 521 0
-503 -511 520 0
-503 -513 521 0
-503 -515 522 0
-500 523 0
-502 524 0
-504 525 0
-512 523 0
-514 524 0
-516 525 0
-500 -512 524 0
-500 -514 525 0
-500 -516 526 0
-502 -512 525 0
-502 -514 526 0
-502 -516 527 0
-504 -512 526 0
-504 -514 527 0
-504 -516 528 0
-518 529 0
-523 529 0
-518 -523 530 0
-519 531 0
-524 531 0
-519 -524 532 0
-520 533 0
-525 533 0
-520 -525 534 0
-521 535 0
-526 535 0
-521 -526 536 0
-522 537 0
-527 537 0
-522 -527 538 0
-39 539 0
-38 539 0
-39 -38 540 0
-50 539 0
-39 -50 540 0
-38 -50 540 0
-39 -38 -50 541 0
-36 542 0
-35 542 0
-36 -35 543 0
-34 542 0
-36 -34 543 0
-35 -34 543 0
-36 -35 -34 544 0
-539 545 0
-540 546 0
-541 547 0
-542 545 0
-543 546 0
-544 547 0
-539 -542 546 0
-539 -543 547 0
-539 -544 548 0
-540 -542 547 0
-540 -543 548 0
-540 -544 549 0
-541 -542 548 0
-541 -543 549 0
-541 -544 550 0
-33 551 0
-32 551 0
-33 -32 552 0
-31 551 0
-33 -31 552 0
-32 -31 552 0
-33 -32 -31 553 0
-30 554 0
-29 554 0
-30 -29 555 0
-28 556 0
-27 556 0
-28 -27 557 0
-26 556 0
-28 -26 557 0
-27 -26 557 0
-28 -27 -26 558 0
-554 559 0
-555 560 0
-556 559 0
-557 560 0
-558 561 0
-554 -556 560 0
-554 -557 561 0
-554 -558 562 0
-555 -556 561 0
-555 -557 562 0
-555 -558 563 0
-551 564 0
-552 565 0
-553 566 0
-559 564 0
-560 565 0
-561 566 0
-562 567 0
-563 568 0
-551 -559 565 0
-551 -560 566 0
-551 -561 567 0
-551 -562 568 0
-551 -563 569 0
-552 -559 566 0
-552 -560 567 0
-552 -561 568 0
-552 -562 569 0
-552 -563 570 0
-553 -559 567 0
-553 -560 568 0
-553 -561 569 0
-553 -562 570 0
-553 -563 571 0
-545 572 0
-547 573 0
-549 574 0
-564 572 0
-566 573 0
-568 574 0
-570 575 0
-545 -564 573 0
-545 -566 574 0
-545 -568 575 0
-545 -570 576 0
-547 -564 574 0
-547 -566 575 0
-547 -568 576 0
-547 -570 577 0
-549 -564 575 0
-549 -566 576 0
-549 -568 577 0
-549 -570 578 0
-546 579 0
-548 580 0
-550 581 0
-565 579 0
-567 580 0
-569 581 0
-571 582 0
-546 -565 580 0
-546 -567 581 0
-546 -569 582 0
-546 -571 583 0
-548 -565 581 0
-548 -567 582 0
-548 -569 583 0
-548 -571 584 0
-550 -565 582 0
-550 -567 583 0
-550 -569 584 0
-550 -571 585 0
-573 586 0
-579 586 0
-573 -579 587 0
-574 588 0
-580 588 0
-574 -580 589 0
-575 590 0
-581 590 0
-575 -581 591 0
-576 592 0
-582 592 0
-576 -582 593 0
-577 594 0
-583 594 0
-577 -583 595 0
-578 596 0
-584 596 0
-578 -584 597 0
-517 598 0
-532 599 0
-536 600 0
-572 598 0
-589 599 0
-593 600 0
-597 601 0
-517 -572 599 0
-517 -589 600 0
-517 -593 601 0
-517 -597 602 0
-532 -572 600 0
-532 -589 601 0
-532 -593 602 0
-536 -572 601 0
-536 -589 602 0
-530 603 0
-534 604 0
-538 605 0
-587 603 0
-591 604 0
-595 605 0
-530 -587 604 0
-530 -591 605 0
-530 -595 606 0
-534 -587 605 0
-534 -591 606 0
-538 -587 606 0
-599 607 0
-603 607 0
-599 -603 608 0
-600 609 0
-604 609 0
-600 -604 610 0
-601 611 0
-605 611 0
-601 -605 612 0
-602 613 0
-606 613 0
-602 -606 614 0
-529 615 0
-533 616 0
-537 617 0
-586 615 0
-590 616 0
-594 617 0
-585 618 0
-529 -586 616 0
-529 -590 617 0
-529 -594 618 0
-529 -585 619 0
-533 -586 617 0
-533 -590 618 0
-533 -594 619 0
-537 -586 618 0
-537 -590 619 0
-531 620 0
-535 621 0
-528 622 0
-588 620 0
-592 621 0
-596 622 0
-531 -588 621 0
-531 -592 622 0
-531 -596 623 0
-535 -588 622 0
-535 -592 623 0
-528 -588 623 0
-616 624 0
-620 624 0
-616 -620 625 0
-617 626 0
-621 626 0
-617 -621 627 0
-618 628 0
-622 628 0
-618 -622 629 0
-619 630 0
-623 630 0
-607 631 0
-615 631 0
-607 -615 632 0
-608 633 0
-624 633 0
-608 -624 634 0
-609 635 0
-625 635 0
-609 -625 636 0
-610 637 0
-626 637 0
-610 -626 638 0
-611 639 0
-627 639 0
-611 -627 640 0
-612 641 0
-628 641 0
-612 -628 642 0
-613 643 0
-629 643 0
-613 -629 644 0
-614 645 0
-630 645 0
-471 646 0
-486 647 0
-490 648 0
-598 646 0
-634 647 0
-638 648 0
-642 649 0
-471 -598 647 0
-471 -634 648 0
-471 -638 649 0
-471 -642 650 0
-486 -598 648 0
-486 -634 649 0
-486 -638 650 0
-490 -598 649 0
-490 -634 650 0
-484 651 0
-488 652 0
-492 653 0
-632 651 0
-636 652 0
-640 653 0
-644 654 0
-484 -632 652 0
-484 -636 653 0
-484 -640 654 0
-488 -632 653 0
-488 -636 654 0
-492 -632 654 0
-647 655 0
-651 655 0
-647 -651 656 0
-648 657 0
-652 657 0
-648 -652 658 0
-649 659 0
-653 659 0
-649 -653 660 0
-650 661 0
-654 661 0
-650 -654 662 0
-483 663 0
-487 664 0
-491 665 0
-631 663 0
-635 664 0
-639 665 0
-643 666 0
-483 -631 664 0
-483 -635 665 0
-483 -639 666 0
-483 -643 667 0
-487 -631 665 0
-487 -635 666 0
-487 -639 667 0
-491 -631 666 0
-491 -635 667 0
-485 668 0
-489 669 0
-482 670 0
-633 668 0
-637 669 0
-641 670 0
-645 671 0
-485 -633 669 0
-485 -637 670 0
-485 -641 671 0
-489 -633 670 0
-489 -637 671 0
-482 -633 671 0
-664 672 0
-668 672 0
-664 -668 673 0
-665 674 0
-669 674 0
-665 -669 675 0
-666 676 0
-670 676 0
-666 -670 677 0
-667 678 0
-671 678 0
-655 679 0
-663 679 0
-655 -663 680 0
-656 681 0
-672 681 0
-656 -672 682 0
-657 683 0
-673 683 0
-657 -673 684 0
-658 685 0
-674 685 0
-658 -674 686 0
-659 687 0
-675 687 0
-659 -675 688 0
-660 689 0
-676 689 0
-660 -676 690 0
-661 691 0
-677 691 0
-661 -677 692 0
-662 693 0
-678 693 0
-425 694 0
-440 695 0
-444 696 0
-646 694 0
-682 695 0
-686 696 0
-690 697 0
-425 -646 695 0
-425 -682 696 0
-425 -686 697 0
-425 -690 698 0
-440 -646 696 0
-440 -682 697 0
-440 -686 698 0
-444 -646 697 0
-444 -682 698 0
-438 699 0
-442 700 0
-446 701 0
-680 699 0
-684 700 0
-688 701 0
-692 702 0
-438 -680 700 0
-438 -684 701 0
-438 -688 702 0
-442 -680 701 0
-442 -684 702 0
-446 -680 702 0
-695 703 0
-699 703 0
-695 -699 704 0
-696 705 0
-700 705 0
-696 -700 706 0
-697 707 0
-701 707 0
-697 -701 708 0
-698 709 0
-702 709 0
-698 -702 710 0
-437 711 0
-441 712 0
-445 713 0
-679 711 0
-683 712 0
-687 713 0
-691 714 0
-437 -679 712 0
-437 -683 713 0
-437 -687 714 0
-437 -691 715 0
-441 -679 713 0
-441 -683 714 0
-441 -687 715 0
-445 -679 714 0
-445 -683 715 0
-439 716 0
-443 717 0
-436 718 0
-681 716 0
-685 717 0
-689 718 0
-693 719 0
-439 -681 717 0
-439 -685 718 0
-439 -689 719 0
-443 -681 718 0
-443 -685 719 0
-436 -681 719 0
-712 720 0
-716 720 0
-712 -716 721 0
-713 722 0
-717 722 0
-713 -717 723 0
-714 724 0
-718 724 0
-714 -718 725 0
-715 726 0
-719 726 0
-703 727 0
-711 727 0
-703 -711 728 0
-704 729 0
-720 729 0
-704 -720 730 0
-705 731 0
-721 731 0
-705 -721 732 0
-706 733 0
-722 733 0
-706 -722 734 0
-707 735 0
-723 735 0
-707 -723 736 0
-708 737 0
-724 737 0
-708 -724 738 0
-709 739 0
-725 739 0
-709 -725 740 0
-710 741 0
-726 741 0
-741 0
